* #variable= 1743 #constraint= 891 
+1 x1703 = 0 ;
+1 x116 -1 x477 = 0 ;
+1 x477 -1 x730 = 0 ;
+1 x730 -1 x911 = 0 ;
+1 x911 -1 x1046 = 0 ;
+1 x1046 -1 x1149 = 0 ;
+1 x1149 -1 x1232 = 0 ;
+1 x1304 +2 x1323 +4 x1342 +8 x1361 +16 x1380 +32 x1399 +64 x1418 +128 x1437 +256 x1456 +512 x1475 +1024 x1494 +2048 x1513 +4096 x1532 +8192 x1551 +16384 x1570 +32768 x1589 +65536 x1608 +131072 x1627 +262144 x1646 +2 x1305 +4 x1324 +8 x1343 +16 x1362 +32 x1381 +64 x1400 +128 x1419 +256 x1438 +512 x1457 +1024 x1476 +2048 x1495 +4096 x1514 +8192 x1533 +16384 x1552 +32768 x1571 +65536 x1590 +131072 x1609 +262144 x1628 +524288 x1647 +4 x1306 +8 x1325 +16 x1344 +32 x1363 +64 x1382 +128 x1401 +256 x1420 +512 x1439 +1024 x1458 +2048 x1477 +4096 x1496 +8192 x1515 +16384 x1534 +32768 x1553 +65536 x1572 +131072 x1591 +262144 x1610 +524288 x1629 +1048576 x1648 +8 x1307 +16 x1326 +32 x1345 +64 x1364 +128 x1383 +256 x1402 +512 x1421 +1024 x1440 +2048 x1459 +4096 x1478 +8192 x1497 +16384 x1516 +32768 x1535 +65536 x1554 +131072 x1573 +262144 x1592 +524288 x1611 +1048576 x1630 +2097152 x1649 +16 x1308 +32 x1327 +64 x1346 +128 x1365 +256 x1384 +512 x1403 +1024 x1422 +2048 x1441 +4096 x1460 +8192 x1479 +16384 x1498 +32768 x1517 +65536 x1536 +131072 x1555 +262144 x1574 +524288 x1593 +1048576 x1612 +2097152 x1631 +4194304 x1650 +32 x1309 +64 x1328 +128 x1347 +256 x1366 +512 x1385 +1024 x1404 +2048 x1423 +4096 x1442 +8192 x1461 +16384 x1480 +32768 x1499 +65536 x1518 +131072 x1537 +262144 x1556 +524288 x1575 +1048576 x1594 +2097152 x1613 +4194304 x1632 +8388608 x1651 +64 x1310 +128 x1329 +256 x1348 +512 x1367 +1024 x1386 +2048 x1405 +4096 x1424 +8192 x1443 +16384 x1462 +32768 x1481 +65536 x1500 +131072 x1519 +262144 x1538 +524288 x1557 +1048576 x1576 +2097152 x1595 +4194304 x1614 +8388608 x1633 +16777216 x1652 +128 x1311 +256 x1330 +512 x1349 +1024 x1368 +2048 x1387 +4096 x1406 +8192 x1425 +16384 x1444 +32768 x1463 +65536 x1482 +131072 x1501 +262144 x1520 +524288 x1539 +1048576 x1558 +2097152 x1577 +4194304 x1596 +8388608 x1615 +16777216 x1634 +33554432 x1653 +256 x1312 +512 x1331 +1024 x1350 +2048 x1369 +4096 x1388 +8192 x1407 +16384 x1426 +32768 x1445 +65536 x1464 +131072 x1483 +262144 x1502 +524288 x1521 +1048576 x1540 +2097152 x1559 +4194304 x1578 +8388608 x1597 +16777216 x1616 +33554432 x1635 +67108864 x1654 +512 x1313 +1024 x1332 +2048 x1351 +4096 x1370 +8192 x1389 +16384 x1408 +32768 x1427 +65536 x1446 +131072 x1465 +262144 x1484 +524288 x1503 +1048576 x1522 +2097152 x1541 +4194304 x1560 +8388608 x1579 +16777216 x1598 +33554432 x1617 +67108864 x1636 +134217728 x1655 +1024 x1314 +2048 x1333 +4096 x1352 +8192 x1371 +16384 x1390 +32768 x1409 +65536 x1428 +131072 x1447 +262144 x1466 +524288 x1485 +1048576 x1504 +2097152 x1523 +4194304 x1542 +8388608 x1561 +16777216 x1580 +33554432 x1599 +67108864 x1618 +134217728 x1637 +268435456 x1656 +2048 x1315 +4096 x1334 +8192 x1353 +16384 x1372 +32768 x1391 +65536 x1410 +131072 x1429 +262144 x1448 +524288 x1467 +1048576 x1486 +2097152 x1505 +4194304 x1524 +8388608 x1543 +16777216 x1562 +33554432 x1581 +67108864 x1600 +134217728 x1619 +268435456 x1638 +536870912 x1657 +4096 x1316 +8192 x1335 +16384 x1354 +32768 x1373 +65536 x1392 +131072 x1411 +262144 x1430 +524288 x1449 +1048576 x1468 +2097152 x1487 +4194304 x1506 +8388608 x1525 +16777216 x1544 +33554432 x1563 +67108864 x1582 +134217728 x1601 +268435456 x1620 +536870912 x1639 +1073741824 x1658 +8192 x1317 +16384 x1336 +32768 x1355 +65536 x1374 +131072 x1393 +262144 x1412 +524288 x1431 +1048576 x1450 +2097152 x1469 +4194304 x1488 +8388608 x1507 +16777216 x1526 +33554432 x1545 +67108864 x1564 +134217728 x1583 +268435456 x1602 +536870912 x1621 +1073741824 x1640 +2147483648 x1659 +16384 x1318 +32768 x1337 +65536 x1356 +131072 x1375 +262144 x1394 +524288 x1413 +1048576 x1432 +2097152 x1451 +4194304 x1470 +8388608 x1489 +16777216 x1508 +33554432 x1527 +67108864 x1546 +134217728 x1565 +268435456 x1584 +536870912 x1603 +1073741824 x1622 +2147483648 x1641 +4294967296 x1660 +32768 x1319 +65536 x1338 +131072 x1357 +262144 x1376 +524288 x1395 +1048576 x1414 +2097152 x1433 +4194304 x1452 +8388608 x1471 +16777216 x1490 +33554432 x1509 +67108864 x1528 +134217728 x1547 +268435456 x1566 +536870912 x1585 +1073741824 x1604 +2147483648 x1623 +4294967296 x1642 +8589934592 x1661 +65536 x1320 +131072 x1339 +262144 x1358 +524288 x1377 +1048576 x1396 +2097152 x1415 +4194304 x1434 +8388608 x1453 +16777216 x1472 +33554432 x1491 +67108864 x1510 +134217728 x1529 +268435456 x1548 +536870912 x1567 +1073741824 x1586 +2147483648 x1605 +4294967296 x1624 +8589934592 x1643 +17179869184 x1662 +131072 x1321 +262144 x1340 +524288 x1359 +1048576 x1378 +2097152 x1397 +4194304 x1416 +8388608 x1435 +16777216 x1454 +33554432 x1473 +67108864 x1492 +134217728 x1511 +268435456 x1530 +536870912 x1549 +1073741824 x1568 +2147483648 x1587 +4294967296 x1606 +8589934592 x1625 +17179869184 x1644 +34359738368 x1663 +262144 x1322 +524288 x1341 +1048576 x1360 +2097152 x1379 +4194304 x1398 +8388608 x1417 +16777216 x1436 +33554432 x1455 +67108864 x1474 +134217728 x1493 +268435456 x1512 +536870912 x1531 +1073741824 x1550 +2147483648 x1569 +4294967296 x1588 +8589934592 x1607 +17179869184 x1626 +34359738368 x1645 +68719476736 x1664 -1 x40 -2 x41 -4 x42 -8 x43 -16 x44 -32 x45 -64 x46 -128 x47 -256 x48 -512 x49 -1024 x50 -2048 x51 -4096 x52 -8192 x53 -16384 x54 -32768 x55 -65536 x56 -131072 x57 -262144 x58 -524288 x59 -1048576 x60 -2097152 x61 -4194304 x62 -8388608 x63 -16777216 x64 -33554432 x65 -67108864 x66 -134217728 x67 -268435456 x68 -536870912 x69 -1073741824 x70 -2147483648 x71 -4294967296 x72 -8589934592 x73 -17179869184 x74 -34359738368 x75 -68719476736 x76 -137438953472 x77 = 0; 
+1 x1 -1 x40 +2 x2 -2 x41 +4 x3 -4 x42 +8 x4 -8 x43 +16 x5 -16 x44 +32 x6 -32 x45 +64 x7 -64 x46 +128 x8 -128 x47 +256 x9 -256 x48 +512 x10 -512 x49 +1024 x11 -1024 x50 +2048 x12 -2048 x51 +4096 x13 -4096 x52 +8192 x14 -8192 x53 +16384 x15 -16384 x54 +32768 x16 -32768 x55 +65536 x17 -65536 x56 +131072 x18 -131072 x57 +262144 x19 -262144 x58 +524288 x20 -524288 x59 +1048576 x21 -1048576 x60 +2097152 x22 -2097152 x61 +4194304 x23 -4194304 x62 +8388608 x24 -8388608 x63 +16777216 x25 -16777216 x64 +33554432 x26 -33554432 x65 +67108864 x27 -67108864 x66 +134217728 x28 -134217728 x67 +268435456 x29 -268435456 x68 +536870912 x30 -536870912 x69 +1073741824 x31 -1073741824 x70 +2147483648 x32 -2147483648 x71 +4294967296 x33 -4294967296 x72 +8589934592 x34 -8589934592 x73 +17179869184 x35 -17179869184 x74 +34359738368 x36 -34359738368 x75 +68719476736 x37 -68719476736 x76 +137438953472 x38 -137438953472 x77 >= 1 ;
+1 x1704 = 0 ;
+2 x478 +1 x479 -1 x118 -1 x117 = 0 ;
+1 x479 -1 x731 = 0 ;
+1 x731 -1 x912 = 0 ;
+1 x912 -1 x1047 = 0 ;
+1 x1047 -1 x1150 = 0 ;
+1 x1150 -1 x1233 = 0 ;
+1 x1705 = 0 ;
+2 x480 +1 x481 -1 x121 -1 x119 -1 x120 = 0 ;
+2 x732 +1 x733 -1 x478 -1 x481 = 0 ;
+1 x733 -1 x913 = 0 ;
+1 x913 -1 x1048 = 0 ;
+1 x1048 -1 x1151 = 0 ;
+1 x1151 -1 x1234 = 0 ;
+1 x1706 = 0 ;
+2 x482 +1 x483 -1 x124 -1 x122 -1 x123 = 0 ;
+1 x125 -1 x549 = 0 ;
+2 x734 +1 x735 -1 x549 -1 x483 -1 x480 = 0 ;
+2 x914 +1 x915 -1 x732 -1 x735 = 0 ;
+1 x915 -1 x1049 = 0 ;
+1 x1049 -1 x1152 = 0 ;
+1 x1152 -1 x1235 = 0 ;
+1 x1707 = 0 ;
+2 x484 +1 x485 -1 x128 -1 x126 -1 x127 = 0 ;
+2 x550 +1 x551 -1 x130 -1 x129 = 0 ;
+2 x736 +1 x737 -1 x551 -1 x485 -1 x482 = 0 ;
+2 x916 +1 x917 -1 x734 -1 x737 = 0 ;
+2 x1050 +1 x1051 -1 x914 -1 x917 = 0 ;
+1 x1051 -1 x1153 = 0 ;
+1 x1153 -1 x1236 = 0 ;
+1 x1708 = 0 ;
+2 x486 +1 x487 -1 x133 -1 x131 -1 x132 = 0 ;
+2 x552 +1 x553 -1 x136 -1 x134 -1 x135 = 0 ;
+2 x738 +1 x739 -1 x553 -1 x487 -1 x484 = 0 ;
+1 x550 -1 x802 = 0 ;
+2 x918 +1 x919 -1 x802 -1 x739 -1 x736 = 0 ;
+2 x1052 +1 x1053 -1 x916 -1 x919 = 0 ;
+2 x1154 +1 x1155 -1 x1050 -1 x1053 = 0 ;
+1 x1155 -1 x1237 = 0 ;
+1 x1709 = 0 ;
+2 x488 +1 x489 -1 x139 -1 x137 -1 x138 = 0 ;
+2 x554 +1 x555 -1 x142 -1 x140 -1 x141 = 0 ;
+1 x143 -1 x609 = 0 ;
+2 x740 +1 x741 -1 x555 -1 x489 -1 x486 = 0 ;
+2 x803 +1 x804 -1 x609 -1 x552 = 0 ;
+2 x920 +1 x921 -1 x804 -1 x741 -1 x738 = 0 ;
+2 x1054 +1 x1055 -1 x918 -1 x921 = 0 ;
+2 x1156 +1 x1157 -1 x1052 -1 x1055 = 0 ;
+2 x1238 +1 x1239 -1 x1154 -1 x1157 = 0 ;
+1 x1710 = 0 ;
+2 x490 +1 x491 -1 x146 -1 x144 -1 x145 = 0 ;
+2 x556 +1 x557 -1 x149 -1 x147 -1 x148 = 0 ;
+2 x610 +1 x611 -1 x151 -1 x150 = 0 ;
+2 x742 +1 x743 -1 x557 -1 x491 -1 x488 = 0 ;
+2 x805 +1 x806 -1 x611 -1 x554 = 0 ;
+2 x922 +1 x923 -1 x806 -1 x743 -1 x740 = 0 ;
+1 x803 -1 x983 = 0 ;
+2 x1056 +1 x1057 -1 x983 -1 x923 -1 x920 = 0 ;
+2 x1158 +1 x1159 -1 x1054 -1 x1057 = 0 ;
+2 x1240 +1 x1241 -1 x1156 -1 x1159 = 0 ;
+1 x1711 = 0 ;
+2 x492 +1 x493 -1 x154 -1 x152 -1 x153 = 0 ;
+2 x558 +1 x559 -1 x157 -1 x155 -1 x156 = 0 ;
+2 x612 +1 x613 -1 x160 -1 x158 -1 x159 = 0 ;
+2 x744 +1 x745 -1 x559 -1 x493 -1 x490 = 0 ;
+2 x807 +1 x808 -1 x610 -1 x556 -1 x613 = 0 ;
+2 x924 +1 x925 -1 x808 -1 x745 -1 x742 = 0 ;
+1 x805 -1 x984 = 0 ;
+2 x1058 +1 x1059 -1 x984 -1 x925 -1 x922 = 0 ;
+2 x1160 +1 x1161 -1 x1056 -1 x1059 = 0 ;
+2 x1242 +1 x1243 -1 x1158 -1 x1161 = 0 ;
+1 x1712 = 0 ;
+2 x494 +1 x495 -1 x163 -1 x161 -1 x162 = 0 ;
+2 x560 +1 x561 -1 x166 -1 x164 -1 x165 = 0 ;
+2 x614 +1 x615 -1 x169 -1 x167 -1 x168 = 0 ;
+1 x170 -1 x657 = 0 ;
+2 x746 +1 x747 -1 x561 -1 x495 -1 x492 = 0 ;
+2 x809 +1 x810 -1 x612 -1 x558 -1 x615 = 0 ;
+1 x657 -1 x856 = 0 ;
+2 x926 +1 x927 -1 x810 -1 x747 -1 x744 = 0 ;
+2 x985 +1 x986 -1 x856 -1 x807 = 0 ;
+2 x1060 +1 x1061 -1 x986 -1 x927 -1 x924 = 0 ;
+2 x1162 +1 x1163 -1 x1058 -1 x1061 = 0 ;
+2 x1244 +1 x1245 -1 x1160 -1 x1163 = 0 ;
+1 x1713 = 0 ;
+2 x496 +1 x497 -1 x173 -1 x171 -1 x172 = 0 ;
+2 x562 +1 x563 -1 x176 -1 x174 -1 x175 = 0 ;
+2 x616 +1 x617 -1 x179 -1 x177 -1 x178 = 0 ;
+2 x658 +1 x659 -1 x181 -1 x180 = 0 ;
+2 x748 +1 x749 -1 x563 -1 x497 -1 x494 = 0 ;
+2 x811 +1 x812 -1 x614 -1 x560 -1 x617 = 0 ;
+1 x659 -1 x857 = 0 ;
+2 x928 +1 x929 -1 x812 -1 x749 -1 x746 = 0 ;
+2 x987 +1 x988 -1 x857 -1 x809 = 0 ;
+2 x1062 +1 x1063 -1 x988 -1 x929 -1 x926 = 0 ;
+1 x985 -1 x1118 = 0 ;
+2 x1164 +1 x1165 -1 x1118 -1 x1063 -1 x1060 = 0 ;
+2 x1246 +1 x1247 -1 x1162 -1 x1165 = 0 ;
+1 x1714 = 0 ;
+2 x498 +1 x499 -1 x184 -1 x182 -1 x183 = 0 ;
+2 x564 +1 x565 -1 x187 -1 x185 -1 x186 = 0 ;
+2 x618 +1 x619 -1 x190 -1 x188 -1 x189 = 0 ;
+2 x660 +1 x661 -1 x193 -1 x191 -1 x192 = 0 ;
+2 x750 +1 x751 -1 x565 -1 x499 -1 x496 = 0 ;
+2 x813 +1 x814 -1 x616 -1 x562 -1 x619 = 0 ;
+2 x858 +1 x859 -1 x658 -1 x661 = 0 ;
+2 x930 +1 x931 -1 x814 -1 x751 -1 x748 = 0 ;
+2 x989 +1 x990 -1 x859 -1 x811 = 0 ;
+2 x1064 +1 x1065 -1 x990 -1 x931 -1 x928 = 0 ;
+1 x987 -1 x1119 = 0 ;
+2 x1166 +1 x1167 -1 x1119 -1 x1065 -1 x1062 = 0 ;
+2 x1248 +1 x1249 -1 x1164 -1 x1167 = 0 ;
+1 x1715 = 0 ;
+2 x500 +1 x501 -1 x196 -1 x194 -1 x195 = 0 ;
+2 x566 +1 x567 -1 x199 -1 x197 -1 x198 = 0 ;
+2 x620 +1 x621 -1 x202 -1 x200 -1 x201 = 0 ;
+2 x662 +1 x663 -1 x205 -1 x203 -1 x204 = 0 ;
+1 x206 -1 x693 = 0 ;
+2 x752 +1 x753 -1 x567 -1 x501 -1 x498 = 0 ;
+2 x815 +1 x816 -1 x618 -1 x564 -1 x621 = 0 ;
+2 x860 +1 x861 -1 x693 -1 x663 -1 x660 = 0 ;
+2 x932 +1 x933 -1 x816 -1 x753 -1 x750 = 0 ;
+2 x991 +1 x992 -1 x858 -1 x813 -1 x861 = 0 ;
+2 x1066 +1 x1067 -1 x992 -1 x933 -1 x930 = 0 ;
+1 x989 -1 x1120 = 0 ;
+2 x1168 +1 x1169 -1 x1120 -1 x1067 -1 x1064 = 0 ;
+2 x1250 +1 x1251 -1 x1166 -1 x1169 = 0 ;
+1 x1716 = 0 ;
+2 x502 +1 x503 -1 x209 -1 x207 -1 x208 = 0 ;
+2 x568 +1 x569 -1 x212 -1 x210 -1 x211 = 0 ;
+2 x622 +1 x623 -1 x215 -1 x213 -1 x214 = 0 ;
+2 x664 +1 x665 -1 x218 -1 x216 -1 x217 = 0 ;
+2 x694 +1 x695 -1 x220 -1 x219 = 0 ;
+2 x754 +1 x755 -1 x569 -1 x503 -1 x500 = 0 ;
+2 x817 +1 x818 -1 x620 -1 x566 -1 x623 = 0 ;
+2 x862 +1 x863 -1 x695 -1 x665 -1 x662 = 0 ;
+2 x934 +1 x935 -1 x818 -1 x755 -1 x752 = 0 ;
+2 x993 +1 x994 -1 x860 -1 x815 -1 x863 = 0 ;
+2 x1068 +1 x1069 -1 x994 -1 x935 -1 x932 = 0 ;
+1 x991 -1 x1121 = 0 ;
+2 x1170 +1 x1171 -1 x1121 -1 x1069 -1 x1066 = 0 ;
+2 x1252 +1 x1253 -1 x1168 -1 x1171 = 0 ;
+1 x1717 = 0 ;
+2 x504 +1 x505 -1 x223 -1 x221 -1 x222 = 0 ;
+2 x570 +1 x571 -1 x226 -1 x224 -1 x225 = 0 ;
+2 x624 +1 x625 -1 x229 -1 x227 -1 x228 = 0 ;
+2 x666 +1 x667 -1 x232 -1 x230 -1 x231 = 0 ;
+2 x696 +1 x697 -1 x235 -1 x233 -1 x234 = 0 ;
+2 x756 +1 x757 -1 x571 -1 x505 -1 x502 = 0 ;
+2 x819 +1 x820 -1 x622 -1 x568 -1 x625 = 0 ;
+2 x864 +1 x865 -1 x697 -1 x667 -1 x664 = 0 ;
+1 x694 -1 x892 = 0 ;
+2 x936 +1 x937 -1 x820 -1 x757 -1 x754 = 0 ;
+2 x995 +1 x996 -1 x862 -1 x817 -1 x865 = 0 ;
+1 x892 -1 x1028 = 0 ;
+2 x1070 +1 x1071 -1 x996 -1 x937 -1 x934 = 0 ;
+2 x1122 +1 x1123 -1 x1028 -1 x993 = 0 ;
+2 x1172 +1 x1173 -1 x1123 -1 x1071 -1 x1068 = 0 ;
+2 x1254 +1 x1255 -1 x1170 -1 x1173 = 0 ;
+1 x1718 = 0 ;
+2 x506 +1 x507 -1 x238 -1 x236 -1 x237 = 0 ;
+2 x572 +1 x573 -1 x241 -1 x239 -1 x240 = 0 ;
+2 x626 +1 x627 -1 x244 -1 x242 -1 x243 = 0 ;
+2 x668 +1 x669 -1 x247 -1 x245 -1 x246 = 0 ;
+2 x698 +1 x699 -1 x250 -1 x248 -1 x249 = 0 ;
+1 x251 -1 x717 = 0 ;
+2 x758 +1 x759 -1 x573 -1 x507 -1 x504 = 0 ;
+2 x821 +1 x822 -1 x624 -1 x570 -1 x627 = 0 ;
+2 x866 +1 x867 -1 x699 -1 x669 -1 x666 = 0 ;
+2 x893 +1 x894 -1 x717 -1 x696 = 0 ;
+2 x938 +1 x939 -1 x822 -1 x759 -1 x756 = 0 ;
+2 x997 +1 x998 -1 x864 -1 x819 -1 x867 = 0 ;
+1 x894 -1 x1029 = 0 ;
+2 x1072 +1 x1073 -1 x998 -1 x939 -1 x936 = 0 ;
+2 x1124 +1 x1125 -1 x1029 -1 x995 = 0 ;
+2 x1174 +1 x1175 -1 x1125 -1 x1073 -1 x1070 = 0 ;
+1 x1122 -1 x1221 = 0 ;
+2 x1256 +1 x1257 -1 x1221 -1 x1175 -1 x1172 = 0 ;
+1 x1719 = 0 ;
+2 x508 +1 x509 -1 x254 -1 x252 -1 x253 = 0 ;
+2 x574 +1 x575 -1 x257 -1 x255 -1 x256 = 0 ;
+2 x628 +1 x629 -1 x260 -1 x258 -1 x259 = 0 ;
+2 x670 +1 x671 -1 x263 -1 x261 -1 x262 = 0 ;
+2 x700 +1 x701 -1 x266 -1 x264 -1 x265 = 0 ;
+2 x718 +1 x719 -1 x268 -1 x267 = 0 ;
+2 x760 +1 x761 -1 x575 -1 x509 -1 x506 = 0 ;
+2 x823 +1 x824 -1 x626 -1 x572 -1 x629 = 0 ;
+2 x868 +1 x869 -1 x701 -1 x671 -1 x668 = 0 ;
+2 x895 +1 x896 -1 x719 -1 x698 = 0 ;
+2 x940 +1 x941 -1 x824 -1 x761 -1 x758 = 0 ;
+2 x999 +1 x1000 -1 x866 -1 x821 -1 x869 = 0 ;
+2 x1030 +1 x1031 -1 x893 -1 x896 = 0 ;
+2 x1074 +1 x1075 -1 x1000 -1 x941 -1 x938 = 0 ;
+2 x1126 +1 x1127 -1 x1031 -1 x997 = 0 ;
+2 x1176 +1 x1177 -1 x1127 -1 x1075 -1 x1072 = 0 ;
+1 x1124 -1 x1222 = 0 ;
+2 x1258 +1 x1259 -1 x1222 -1 x1177 -1 x1174 = 0 ;
+1 x1720 = 0 ;
+2 x510 +1 x511 -1 x271 -1 x269 -1 x270 = 0 ;
+2 x576 +1 x577 -1 x274 -1 x272 -1 x273 = 0 ;
+2 x630 +1 x631 -1 x277 -1 x275 -1 x276 = 0 ;
+2 x672 +1 x673 -1 x280 -1 x278 -1 x279 = 0 ;
+2 x702 +1 x703 -1 x283 -1 x281 -1 x282 = 0 ;
+2 x720 +1 x721 -1 x286 -1 x284 -1 x285 = 0 ;
+2 x762 +1 x763 -1 x577 -1 x511 -1 x508 = 0 ;
+2 x825 +1 x826 -1 x628 -1 x574 -1 x631 = 0 ;
+2 x870 +1 x871 -1 x703 -1 x673 -1 x670 = 0 ;
+2 x897 +1 x898 -1 x718 -1 x700 -1 x721 = 0 ;
+2 x942 +1 x943 -1 x826 -1 x763 -1 x760 = 0 ;
+2 x1001 +1 x1002 -1 x868 -1 x823 -1 x871 = 0 ;
+2 x1032 +1 x1033 -1 x895 -1 x898 = 0 ;
+2 x1076 +1 x1077 -1 x1002 -1 x943 -1 x940 = 0 ;
+2 x1128 +1 x1129 -1 x1030 -1 x999 -1 x1033 = 0 ;
+2 x1178 +1 x1179 -1 x1129 -1 x1077 -1 x1074 = 0 ;
+1 x1126 -1 x1223 = 0 ;
+2 x1260 +1 x1261 -1 x1223 -1 x1179 -1 x1176 = 0 ;
+1 x1721 = 0 ;
+2 x512 +1 x513 -1 x289 -1 x287 -1 x288 = 0 ;
+2 x578 +1 x579 -1 x292 -1 x290 -1 x291 = 0 ;
+2 x632 +1 x633 -1 x295 -1 x293 -1 x294 = 0 ;
+2 x674 +1 x675 -1 x298 -1 x296 -1 x297 = 0 ;
+2 x704 +1 x705 -1 x301 -1 x299 -1 x300 = 0 ;
+2 x722 +1 x723 -1 x304 -1 x302 -1 x303 = 0 ;
+1 x305 -1 x729 = 0 ;
+2 x764 +1 x765 -1 x579 -1 x513 -1 x510 = 0 ;
+2 x827 +1 x828 -1 x630 -1 x576 -1 x633 = 0 ;
+2 x872 +1 x873 -1 x705 -1 x675 -1 x672 = 0 ;
+2 x899 +1 x900 -1 x720 -1 x702 -1 x723 = 0 ;
+1 x729 -1 x910 = 0 ;
+2 x944 +1 x945 -1 x828 -1 x765 -1 x762 = 0 ;
+2 x1003 +1 x1004 -1 x870 -1 x825 -1 x873 = 0 ;
+2 x1034 +1 x1035 -1 x910 -1 x900 -1 x897 = 0 ;
+2 x1078 +1 x1079 -1 x1004 -1 x945 -1 x942 = 0 ;
+2 x1130 +1 x1131 -1 x1032 -1 x1001 -1 x1035 = 0 ;
+2 x1180 +1 x1181 -1 x1131 -1 x1079 -1 x1076 = 0 ;
+1 x1128 -1 x1224 = 0 ;
+2 x1262 +1 x1263 -1 x1224 -1 x1181 -1 x1178 = 0 ;
+1 x1722 = 0 ;
+2 x514 +1 x515 -1 x308 -1 x306 -1 x307 = 0 ;
+2 x580 +1 x581 -1 x311 -1 x309 -1 x310 = 0 ;
+2 x634 +1 x635 -1 x314 -1 x312 -1 x313 = 0 ;
+2 x676 +1 x677 -1 x317 -1 x315 -1 x316 = 0 ;
+2 x706 +1 x707 -1 x320 -1 x318 -1 x319 = 0 ;
+2 x724 +1 x725 -1 x323 -1 x321 -1 x322 = 0 ;
+2 x766 +1 x767 -1 x581 -1 x515 -1 x512 = 0 ;
+2 x829 +1 x830 -1 x632 -1 x578 -1 x635 = 0 ;
+2 x874 +1 x875 -1 x707 -1 x677 -1 x674 = 0 ;
+2 x901 +1 x902 -1 x722 -1 x704 -1 x725 = 0 ;
+2 x946 +1 x947 -1 x830 -1 x767 -1 x764 = 0 ;
+2 x1005 +1 x1006 -1 x872 -1 x827 -1 x875 = 0 ;
+2 x1036 +1 x1037 -1 x899 -1 x902 = 0 ;
+2 x1080 +1 x1081 -1 x1006 -1 x947 -1 x944 = 0 ;
+2 x1132 +1 x1133 -1 x1034 -1 x1003 -1 x1037 = 0 ;
+2 x1182 +1 x1183 -1 x1133 -1 x1081 -1 x1078 = 0 ;
+1 x1130 -1 x1225 = 0 ;
+2 x1264 +1 x1265 -1 x1225 -1 x1183 -1 x1180 = 0 ;
+1 x1723 = 0 ;
+2 x516 +1 x517 -1 x326 -1 x324 -1 x325 = 0 ;
+2 x582 +1 x583 -1 x329 -1 x327 -1 x328 = 0 ;
+2 x636 +1 x637 -1 x332 -1 x330 -1 x331 = 0 ;
+2 x678 +1 x679 -1 x335 -1 x333 -1 x334 = 0 ;
+2 x708 +1 x709 -1 x338 -1 x336 -1 x337 = 0 ;
+2 x726 +1 x727 -1 x340 -1 x339 = 0 ;
+2 x768 +1 x769 -1 x583 -1 x517 -1 x514 = 0 ;
+2 x831 +1 x832 -1 x634 -1 x580 -1 x637 = 0 ;
+2 x876 +1 x877 -1 x709 -1 x679 -1 x676 = 0 ;
+2 x903 +1 x904 -1 x724 -1 x706 -1 x727 = 0 ;
+2 x948 +1 x949 -1 x832 -1 x769 -1 x766 = 0 ;
+2 x1007 +1 x1008 -1 x874 -1 x829 -1 x877 = 0 ;
+2 x1038 +1 x1039 -1 x901 -1 x904 = 0 ;
+2 x1082 +1 x1083 -1 x1008 -1 x949 -1 x946 = 0 ;
+2 x1134 +1 x1135 -1 x1036 -1 x1005 -1 x1039 = 0 ;
+2 x1184 +1 x1185 -1 x1135 -1 x1083 -1 x1080 = 0 ;
+1 x1132 -1 x1226 = 0 ;
+2 x1266 +1 x1267 -1 x1226 -1 x1185 -1 x1182 = 0 ;
+1 x1724 = 0 ;
+2 x518 +1 x519 -1 x343 -1 x341 -1 x342 = 0 ;
+2 x584 +1 x585 -1 x346 -1 x344 -1 x345 = 0 ;
+2 x638 +1 x639 -1 x349 -1 x347 -1 x348 = 0 ;
+2 x680 +1 x681 -1 x352 -1 x350 -1 x351 = 0 ;
+2 x710 +1 x711 -1 x355 -1 x353 -1 x354 = 0 ;
+1 x356 -1 x728 = 0 ;
+2 x770 +1 x771 -1 x585 -1 x519 -1 x516 = 0 ;
+2 x833 +1 x834 -1 x636 -1 x582 -1 x639 = 0 ;
+2 x878 +1 x879 -1 x711 -1 x681 -1 x678 = 0 ;
+2 x905 +1 x906 -1 x726 -1 x708 -1 x728 = 0 ;
+2 x950 +1 x951 -1 x834 -1 x771 -1 x768 = 0 ;
+2 x1009 +1 x1010 -1 x876 -1 x831 -1 x879 = 0 ;
+2 x1040 +1 x1041 -1 x903 -1 x906 = 0 ;
+2 x1084 +1 x1085 -1 x1010 -1 x951 -1 x948 = 0 ;
+2 x1136 +1 x1137 -1 x1038 -1 x1007 -1 x1041 = 0 ;
+2 x1186 +1 x1187 -1 x1137 -1 x1085 -1 x1082 = 0 ;
+1 x1134 -1 x1227 = 0 ;
+2 x1268 +1 x1269 -1 x1227 -1 x1187 -1 x1184 = 0 ;
+1 x1725 = 0 ;
+2 x520 +1 x521 -1 x359 -1 x357 -1 x358 = 0 ;
+2 x586 +1 x587 -1 x362 -1 x360 -1 x361 = 0 ;
+2 x640 +1 x641 -1 x365 -1 x363 -1 x364 = 0 ;
+2 x682 +1 x683 -1 x368 -1 x366 -1 x367 = 0 ;
+2 x712 +1 x713 -1 x371 -1 x369 -1 x370 = 0 ;
+2 x772 +1 x773 -1 x587 -1 x521 -1 x518 = 0 ;
+2 x835 +1 x836 -1 x638 -1 x584 -1 x641 = 0 ;
+2 x880 +1 x881 -1 x713 -1 x683 -1 x680 = 0 ;
+1 x710 -1 x907 = 0 ;
+2 x952 +1 x953 -1 x836 -1 x773 -1 x770 = 0 ;
+2 x1011 +1 x1012 -1 x878 -1 x833 -1 x881 = 0 ;
+2 x1042 +1 x1043 -1 x905 -1 x907 = 0 ;
+2 x1086 +1 x1087 -1 x1012 -1 x953 -1 x950 = 0 ;
+2 x1138 +1 x1139 -1 x1040 -1 x1009 -1 x1043 = 0 ;
+2 x1188 +1 x1189 -1 x1139 -1 x1087 -1 x1084 = 0 ;
+1 x1136 -1 x1228 = 0 ;
+2 x1270 +1 x1271 -1 x1228 -1 x1189 -1 x1186 = 0 ;
+1 x1726 = 0 ;
+2 x522 +1 x523 -1 x374 -1 x372 -1 x373 = 0 ;
+2 x588 +1 x589 -1 x377 -1 x375 -1 x376 = 0 ;
+2 x642 +1 x643 -1 x380 -1 x378 -1 x379 = 0 ;
+2 x684 +1 x685 -1 x383 -1 x381 -1 x382 = 0 ;
+2 x714 +1 x715 -1 x385 -1 x384 = 0 ;
+2 x774 +1 x775 -1 x589 -1 x523 -1 x520 = 0 ;
+2 x837 +1 x838 -1 x640 -1 x586 -1 x643 = 0 ;
+2 x882 +1 x883 -1 x715 -1 x685 -1 x682 = 0 ;
+1 x712 -1 x908 = 0 ;
+2 x954 +1 x955 -1 x838 -1 x775 -1 x772 = 0 ;
+2 x1013 +1 x1014 -1 x880 -1 x835 -1 x883 = 0 ;
+1 x908 -1 x1044 = 0 ;
+2 x1088 +1 x1089 -1 x1014 -1 x955 -1 x952 = 0 ;
+2 x1140 +1 x1141 -1 x1042 -1 x1011 -1 x1044 = 0 ;
+2 x1190 +1 x1191 -1 x1141 -1 x1089 -1 x1086 = 0 ;
+1 x1138 -1 x1229 = 0 ;
+2 x1272 +1 x1273 -1 x1229 -1 x1191 -1 x1188 = 0 ;
+1 x1727 = 0 ;
+2 x524 +1 x525 -1 x388 -1 x386 -1 x387 = 0 ;
+2 x590 +1 x591 -1 x391 -1 x389 -1 x390 = 0 ;
+2 x644 +1 x645 -1 x394 -1 x392 -1 x393 = 0 ;
+2 x686 +1 x687 -1 x397 -1 x395 -1 x396 = 0 ;
+1 x398 -1 x716 = 0 ;
+2 x776 +1 x777 -1 x591 -1 x525 -1 x522 = 0 ;
+2 x839 +1 x840 -1 x642 -1 x588 -1 x645 = 0 ;
+2 x884 +1 x885 -1 x716 -1 x687 -1 x684 = 0 ;
+1 x714 -1 x909 = 0 ;
+2 x956 +1 x957 -1 x840 -1 x777 -1 x774 = 0 ;
+2 x1015 +1 x1016 -1 x882 -1 x837 -1 x885 = 0 ;
+1 x909 -1 x1045 = 0 ;
+2 x1090 +1 x1091 -1 x1016 -1 x957 -1 x954 = 0 ;
+2 x1142 +1 x1143 -1 x1045 -1 x1013 = 0 ;
+2 x1192 +1 x1193 -1 x1143 -1 x1091 -1 x1088 = 0 ;
+1 x1140 -1 x1230 = 0 ;
+2 x1274 +1 x1275 -1 x1230 -1 x1193 -1 x1190 = 0 ;
+1 x1728 = 0 ;
+2 x526 +1 x527 -1 x401 -1 x399 -1 x400 = 0 ;
+2 x592 +1 x593 -1 x404 -1 x402 -1 x403 = 0 ;
+2 x646 +1 x647 -1 x407 -1 x405 -1 x406 = 0 ;
+2 x688 +1 x689 -1 x410 -1 x408 -1 x409 = 0 ;
+2 x778 +1 x779 -1 x593 -1 x527 -1 x524 = 0 ;
+2 x841 +1 x842 -1 x644 -1 x590 -1 x647 = 0 ;
+2 x886 +1 x887 -1 x686 -1 x689 = 0 ;
+2 x958 +1 x959 -1 x842 -1 x779 -1 x776 = 0 ;
+2 x1017 +1 x1018 -1 x884 -1 x839 -1 x887 = 0 ;
+2 x1092 +1 x1093 -1 x1018 -1 x959 -1 x956 = 0 ;
+1 x1015 -1 x1144 = 0 ;
+2 x1194 +1 x1195 -1 x1144 -1 x1093 -1 x1090 = 0 ;
+1 x1142 -1 x1231 = 0 ;
+2 x1276 +1 x1277 -1 x1231 -1 x1195 -1 x1192 = 0 ;
+1 x1729 = 0 ;
+2 x528 +1 x529 -1 x413 -1 x411 -1 x412 = 0 ;
+2 x594 +1 x595 -1 x416 -1 x414 -1 x415 = 0 ;
+2 x648 +1 x649 -1 x419 -1 x417 -1 x418 = 0 ;
+2 x690 +1 x691 -1 x421 -1 x420 = 0 ;
+2 x780 +1 x781 -1 x595 -1 x529 -1 x526 = 0 ;
+2 x843 +1 x844 -1 x646 -1 x592 -1 x649 = 0 ;
+2 x888 +1 x889 -1 x688 -1 x691 = 0 ;
+2 x960 +1 x961 -1 x844 -1 x781 -1 x778 = 0 ;
+2 x1019 +1 x1020 -1 x886 -1 x841 -1 x889 = 0 ;
+2 x1094 +1 x1095 -1 x1020 -1 x961 -1 x958 = 0 ;
+1 x1017 -1 x1145 = 0 ;
+2 x1196 +1 x1197 -1 x1145 -1 x1095 -1 x1092 = 0 ;
+2 x1278 +1 x1279 -1 x1194 -1 x1197 = 0 ;
+1 x1730 = 0 ;
+2 x530 +1 x531 -1 x424 -1 x422 -1 x423 = 0 ;
+2 x596 +1 x597 -1 x427 -1 x425 -1 x426 = 0 ;
+2 x650 +1 x651 -1 x430 -1 x428 -1 x429 = 0 ;
+1 x431 -1 x692 = 0 ;
+2 x782 +1 x783 -1 x597 -1 x531 -1 x528 = 0 ;
+2 x845 +1 x846 -1 x648 -1 x594 -1 x651 = 0 ;
+2 x890 +1 x891 -1 x690 -1 x692 = 0 ;
+2 x962 +1 x963 -1 x846 -1 x783 -1 x780 = 0 ;
+2 x1021 +1 x1022 -1 x888 -1 x843 -1 x891 = 0 ;
+2 x1096 +1 x1097 -1 x1022 -1 x963 -1 x960 = 0 ;
+1 x1019 -1 x1146 = 0 ;
+2 x1198 +1 x1199 -1 x1146 -1 x1097 -1 x1094 = 0 ;
+2 x1280 +1 x1281 -1 x1196 -1 x1199 = 0 ;
+1 x1731 = 0 ;
+2 x532 +1 x533 -1 x434 -1 x432 -1 x433 = 0 ;
+2 x598 +1 x599 -1 x437 -1 x435 -1 x436 = 0 ;
+2 x652 +1 x653 -1 x440 -1 x438 -1 x439 = 0 ;
+2 x784 +1 x785 -1 x599 -1 x533 -1 x530 = 0 ;
+2 x847 +1 x848 -1 x650 -1 x596 -1 x653 = 0 ;
+2 x964 +1 x965 -1 x848 -1 x785 -1 x782 = 0 ;
+2 x1023 +1 x1024 -1 x890 -1 x845 = 0 ;
+2 x1098 +1 x1099 -1 x1024 -1 x965 -1 x962 = 0 ;
+1 x1021 -1 x1147 = 0 ;
+2 x1200 +1 x1201 -1 x1147 -1 x1099 -1 x1096 = 0 ;
+2 x1282 +1 x1283 -1 x1198 -1 x1201 = 0 ;
+1 x1732 = 0 ;
+2 x534 +1 x535 -1 x443 -1 x441 -1 x442 = 0 ;
+2 x600 +1 x601 -1 x446 -1 x444 -1 x445 = 0 ;
+2 x654 +1 x655 -1 x448 -1 x447 = 0 ;
+2 x786 +1 x787 -1 x601 -1 x535 -1 x532 = 0 ;
+2 x849 +1 x850 -1 x652 -1 x598 -1 x655 = 0 ;
+2 x966 +1 x967 -1 x850 -1 x787 -1 x784 = 0 ;
+1 x847 -1 x1025 = 0 ;
+2 x1100 +1 x1101 -1 x1025 -1 x967 -1 x964 = 0 ;
+1 x1023 -1 x1148 = 0 ;
+2 x1202 +1 x1203 -1 x1148 -1 x1101 -1 x1098 = 0 ;
+2 x1284 +1 x1285 -1 x1200 -1 x1203 = 0 ;
+1 x1733 = 0 ;
+2 x536 +1 x537 -1 x451 -1 x449 -1 x450 = 0 ;
+2 x602 +1 x603 -1 x454 -1 x452 -1 x453 = 0 ;
+1 x455 -1 x656 = 0 ;
+2 x788 +1 x789 -1 x603 -1 x537 -1 x534 = 0 ;
+2 x851 +1 x852 -1 x654 -1 x600 -1 x656 = 0 ;
+2 x968 +1 x969 -1 x852 -1 x789 -1 x786 = 0 ;
+1 x849 -1 x1026 = 0 ;
+2 x1102 +1 x1103 -1 x1026 -1 x969 -1 x966 = 0 ;
+2 x1204 +1 x1205 -1 x1100 -1 x1103 = 0 ;
+2 x1286 +1 x1287 -1 x1202 -1 x1205 = 0 ;
+1 x1734 = 0 ;
+2 x538 +1 x539 -1 x458 -1 x456 -1 x457 = 0 ;
+2 x604 +1 x605 -1 x461 -1 x459 -1 x460 = 0 ;
+2 x790 +1 x791 -1 x605 -1 x539 -1 x536 = 0 ;
+1 x602 -1 x853 = 0 ;
+2 x970 +1 x971 -1 x853 -1 x791 -1 x788 = 0 ;
+1 x851 -1 x1027 = 0 ;
+2 x1104 +1 x1105 -1 x1027 -1 x971 -1 x968 = 0 ;
+2 x1206 +1 x1207 -1 x1102 -1 x1105 = 0 ;
+2 x1288 +1 x1289 -1 x1204 -1 x1207 = 0 ;
+1 x1735 = 0 ;
+2 x540 +1 x541 -1 x464 -1 x462 -1 x463 = 0 ;
+2 x606 +1 x607 -1 x466 -1 x465 = 0 ;
+2 x792 +1 x793 -1 x607 -1 x541 -1 x538 = 0 ;
+1 x604 -1 x854 = 0 ;
+2 x972 +1 x973 -1 x854 -1 x793 -1 x790 = 0 ;
+2 x1106 +1 x1107 -1 x970 -1 x973 = 0 ;
+2 x1208 +1 x1209 -1 x1104 -1 x1107 = 0 ;
+2 x1290 +1 x1291 -1 x1206 -1 x1209 = 0 ;
+1 x1736 = 0 ;
+2 x542 +1 x543 -1 x469 -1 x467 -1 x468 = 0 ;
+1 x470 -1 x608 = 0 ;
+2 x794 +1 x795 -1 x608 -1 x543 -1 x540 = 0 ;
+1 x606 -1 x855 = 0 ;
+2 x974 +1 x975 -1 x855 -1 x795 -1 x792 = 0 ;
+2 x1108 +1 x1109 -1 x972 -1 x975 = 0 ;
+2 x1210 +1 x1211 -1 x1106 -1 x1109 = 0 ;
+2 x1292 +1 x1293 -1 x1208 -1 x1211 = 0 ;
+1 x1737 = 0 ;
+2 x544 +1 x545 -1 x473 -1 x471 -1 x472 = 0 ;
+2 x796 +1 x797 -1 x542 -1 x545 = 0 ;
+2 x976 +1 x977 -1 x794 -1 x797 = 0 ;
+2 x1110 +1 x1111 -1 x974 -1 x977 = 0 ;
+2 x1212 +1 x1213 -1 x1108 -1 x1111 = 0 ;
+2 x1294 +1 x1295 -1 x1210 -1 x1213 = 0 ;
+1 x1738 = 0 ;
+2 x546 +1 x547 -1 x475 -1 x474 = 0 ;
+2 x798 +1 x799 -1 x544 -1 x547 = 0 ;
+2 x978 +1 x979 -1 x796 -1 x799 = 0 ;
+2 x1112 +1 x1113 -1 x976 -1 x979 = 0 ;
+2 x1214 +1 x1215 -1 x1110 -1 x1113 = 0 ;
+2 x1296 +1 x1297 -1 x1212 -1 x1215 = 0 ;
+1 x1739 = 0 ;
+1 x476 -1 x548 = 0 ;
+2 x800 +1 x801 -1 x546 -1 x548 = 0 ;
+2 x980 +1 x981 -1 x798 -1 x801 = 0 ;
+2 x1114 +1 x1115 -1 x978 -1 x981 = 0 ;
+2 x1216 +1 x1217 -1 x1112 -1 x1115 = 0 ;
+2 x1298 +1 x1299 -1 x1214 -1 x1217 = 0 ;
+1 x1740 = 0 ;
+1 x800 -1 x982 = 0 ;
+2 x1116 +1 x1117 -1 x980 -1 x982 = 0 ;
+2 x1218 +1 x1219 -1 x1114 -1 x1117 = 0 ;
+2 x1300 +1 x1301 -1 x1216 -1 x1219 = 0 ;
+1 x1116 -1 x1220 = 0 ;
+2 x1302 +1 x1303 -1 x1218 -1 x1220 = 0 ;
+1 x1304 -1 x116 = 0 ;
+1 x1305 -1 x118 = 0 ;
+1 x1306 -1 x121 = 0 ;
+1 x1307 -1 x125 = 0 ;
+1 x1308 -1 x130 = 0 ;
+1 x1309 -1 x136 = 0 ;
+1 x1310 -1 x143 = 0 ;
+1 x1311 -1 x151 = 0 ;
+1 x1312 -1 x160 = 0 ;
+1 x1313 -1 x170 = 0 ;
+1 x1314 -1 x181 = 0 ;
+1 x1315 -1 x193 = 0 ;
+1 x1316 -1 x206 = 0 ;
+1 x1317 -1 x220 = 0 ;
+1 x1318 -1 x235 = 0 ;
+1 x1319 -1 x251 = 0 ;
+1 x1320 -1 x268 = 0 ;
+1 x1321 -1 x286 = 0 ;
+1 x1322 -1 x305 = 0 ;
+1 x1323 -1 x117 = 0 ;
+1 x1324 -1 x120 = 0 ;
+1 x1325 -1 x124 = 0 ;
+1 x1326 -1 x129 = 0 ;
+1 x1327 -1 x135 = 0 ;
+1 x1328 -1 x142 = 0 ;
+1 x1329 -1 x150 = 0 ;
+1 x1330 -1 x159 = 0 ;
+1 x1331 -1 x169 = 0 ;
+1 x1332 -1 x180 = 0 ;
+1 x1333 -1 x192 = 0 ;
+1 x1334 -1 x205 = 0 ;
+1 x1335 -1 x219 = 0 ;
+1 x1336 -1 x234 = 0 ;
+1 x1337 -1 x250 = 0 ;
+1 x1338 -1 x267 = 0 ;
+1 x1339 -1 x285 = 0 ;
+1 x1340 -1 x304 = 0 ;
+1 x1341 -1 x323 = 0 ;
+1 x1342 -1 x119 = 0 ;
+1 x1343 -1 x123 = 0 ;
+1 x1344 -1 x128 = 0 ;
+1 x1345 -1 x134 = 0 ;
+1 x1346 -1 x141 = 0 ;
+1 x1347 -1 x149 = 0 ;
+1 x1348 -1 x158 = 0 ;
+1 x1349 -1 x168 = 0 ;
+1 x1350 -1 x179 = 0 ;
+1 x1351 -1 x191 = 0 ;
+1 x1352 -1 x204 = 0 ;
+1 x1353 -1 x218 = 0 ;
+1 x1354 -1 x233 = 0 ;
+1 x1355 -1 x249 = 0 ;
+1 x1356 -1 x266 = 0 ;
+1 x1357 -1 x284 = 0 ;
+1 x1358 -1 x303 = 0 ;
+1 x1359 -1 x322 = 0 ;
+1 x1360 -1 x340 = 0 ;
+1 x1361 -1 x122 = 0 ;
+1 x1362 -1 x127 = 0 ;
+1 x1363 -1 x133 = 0 ;
+1 x1364 -1 x140 = 0 ;
+1 x1365 -1 x148 = 0 ;
+1 x1366 -1 x157 = 0 ;
+1 x1367 -1 x167 = 0 ;
+1 x1368 -1 x178 = 0 ;
+1 x1369 -1 x190 = 0 ;
+1 x1370 -1 x203 = 0 ;
+1 x1371 -1 x217 = 0 ;
+1 x1372 -1 x232 = 0 ;
+1 x1373 -1 x248 = 0 ;
+1 x1374 -1 x265 = 0 ;
+1 x1375 -1 x283 = 0 ;
+1 x1376 -1 x302 = 0 ;
+1 x1377 -1 x321 = 0 ;
+1 x1378 -1 x339 = 0 ;
+1 x1379 -1 x356 = 0 ;
+1 x1380 -1 x126 = 0 ;
+1 x1381 -1 x132 = 0 ;
+1 x1382 -1 x139 = 0 ;
+1 x1383 -1 x147 = 0 ;
+1 x1384 -1 x156 = 0 ;
+1 x1385 -1 x166 = 0 ;
+1 x1386 -1 x177 = 0 ;
+1 x1387 -1 x189 = 0 ;
+1 x1388 -1 x202 = 0 ;
+1 x1389 -1 x216 = 0 ;
+1 x1390 -1 x231 = 0 ;
+1 x1391 -1 x247 = 0 ;
+1 x1392 -1 x264 = 0 ;
+1 x1393 -1 x282 = 0 ;
+1 x1394 -1 x301 = 0 ;
+1 x1395 -1 x320 = 0 ;
+1 x1396 -1 x338 = 0 ;
+1 x1397 -1 x355 = 0 ;
+1 x1398 -1 x371 = 0 ;
+1 x1399 -1 x131 = 0 ;
+1 x1400 -1 x138 = 0 ;
+1 x1401 -1 x146 = 0 ;
+1 x1402 -1 x155 = 0 ;
+1 x1403 -1 x165 = 0 ;
+1 x1404 -1 x176 = 0 ;
+1 x1405 -1 x188 = 0 ;
+1 x1406 -1 x201 = 0 ;
+1 x1407 -1 x215 = 0 ;
+1 x1408 -1 x230 = 0 ;
+1 x1409 -1 x246 = 0 ;
+1 x1410 -1 x263 = 0 ;
+1 x1411 -1 x281 = 0 ;
+1 x1412 -1 x300 = 0 ;
+1 x1413 -1 x319 = 0 ;
+1 x1414 -1 x337 = 0 ;
+1 x1415 -1 x354 = 0 ;
+1 x1416 -1 x370 = 0 ;
+1 x1417 -1 x385 = 0 ;
+1 x1418 -1 x137 = 0 ;
+1 x1419 -1 x145 = 0 ;
+1 x1420 -1 x154 = 0 ;
+1 x1421 -1 x164 = 0 ;
+1 x1422 -1 x175 = 0 ;
+1 x1423 -1 x187 = 0 ;
+1 x1424 -1 x200 = 0 ;
+1 x1425 -1 x214 = 0 ;
+1 x1426 -1 x229 = 0 ;
+1 x1427 -1 x245 = 0 ;
+1 x1428 -1 x262 = 0 ;
+1 x1429 -1 x280 = 0 ;
+1 x1430 -1 x299 = 0 ;
+1 x1431 -1 x318 = 0 ;
+1 x1432 -1 x336 = 0 ;
+1 x1433 -1 x353 = 0 ;
+1 x1434 -1 x369 = 0 ;
+1 x1435 -1 x384 = 0 ;
+1 x1436 -1 x398 = 0 ;
+1 x1437 -1 x144 = 0 ;
+1 x1438 -1 x153 = 0 ;
+1 x1439 -1 x163 = 0 ;
+1 x1440 -1 x174 = 0 ;
+1 x1441 -1 x186 = 0 ;
+1 x1442 -1 x199 = 0 ;
+1 x1443 -1 x213 = 0 ;
+1 x1444 -1 x228 = 0 ;
+1 x1445 -1 x244 = 0 ;
+1 x1446 -1 x261 = 0 ;
+1 x1447 -1 x279 = 0 ;
+1 x1448 -1 x298 = 0 ;
+1 x1449 -1 x317 = 0 ;
+1 x1450 -1 x335 = 0 ;
+1 x1451 -1 x352 = 0 ;
+1 x1452 -1 x368 = 0 ;
+1 x1453 -1 x383 = 0 ;
+1 x1454 -1 x397 = 0 ;
+1 x1455 -1 x410 = 0 ;
+1 x1456 -1 x152 = 0 ;
+1 x1457 -1 x162 = 0 ;
+1 x1458 -1 x173 = 0 ;
+1 x1459 -1 x185 = 0 ;
+1 x1460 -1 x198 = 0 ;
+1 x1461 -1 x212 = 0 ;
+1 x1462 -1 x227 = 0 ;
+1 x1463 -1 x243 = 0 ;
+1 x1464 -1 x260 = 0 ;
+1 x1465 -1 x278 = 0 ;
+1 x1466 -1 x297 = 0 ;
+1 x1467 -1 x316 = 0 ;
+1 x1468 -1 x334 = 0 ;
+1 x1469 -1 x351 = 0 ;
+1 x1470 -1 x367 = 0 ;
+1 x1471 -1 x382 = 0 ;
+1 x1472 -1 x396 = 0 ;
+1 x1473 -1 x409 = 0 ;
+1 x1474 -1 x421 = 0 ;
+1 x1475 -1 x161 = 0 ;
+1 x1476 -1 x172 = 0 ;
+1 x1477 -1 x184 = 0 ;
+1 x1478 -1 x197 = 0 ;
+1 x1479 -1 x211 = 0 ;
+1 x1480 -1 x226 = 0 ;
+1 x1481 -1 x242 = 0 ;
+1 x1482 -1 x259 = 0 ;
+1 x1483 -1 x277 = 0 ;
+1 x1484 -1 x296 = 0 ;
+1 x1485 -1 x315 = 0 ;
+1 x1486 -1 x333 = 0 ;
+1 x1487 -1 x350 = 0 ;
+1 x1488 -1 x366 = 0 ;
+1 x1489 -1 x381 = 0 ;
+1 x1490 -1 x395 = 0 ;
+1 x1491 -1 x408 = 0 ;
+1 x1492 -1 x420 = 0 ;
+1 x1493 -1 x431 = 0 ;
+1 x1494 -1 x171 = 0 ;
+1 x1495 -1 x183 = 0 ;
+1 x1496 -1 x196 = 0 ;
+1 x1497 -1 x210 = 0 ;
+1 x1498 -1 x225 = 0 ;
+1 x1499 -1 x241 = 0 ;
+1 x1500 -1 x258 = 0 ;
+1 x1501 -1 x276 = 0 ;
+1 x1502 -1 x295 = 0 ;
+1 x1503 -1 x314 = 0 ;
+1 x1504 -1 x332 = 0 ;
+1 x1505 -1 x349 = 0 ;
+1 x1506 -1 x365 = 0 ;
+1 x1507 -1 x380 = 0 ;
+1 x1508 -1 x394 = 0 ;
+1 x1509 -1 x407 = 0 ;
+1 x1510 -1 x419 = 0 ;
+1 x1511 -1 x430 = 0 ;
+1 x1512 -1 x440 = 0 ;
+1 x1513 -1 x182 = 0 ;
+1 x1514 -1 x195 = 0 ;
+1 x1515 -1 x209 = 0 ;
+1 x1516 -1 x224 = 0 ;
+1 x1517 -1 x240 = 0 ;
+1 x1518 -1 x257 = 0 ;
+1 x1519 -1 x275 = 0 ;
+1 x1520 -1 x294 = 0 ;
+1 x1521 -1 x313 = 0 ;
+1 x1522 -1 x331 = 0 ;
+1 x1523 -1 x348 = 0 ;
+1 x1524 -1 x364 = 0 ;
+1 x1525 -1 x379 = 0 ;
+1 x1526 -1 x393 = 0 ;
+1 x1527 -1 x406 = 0 ;
+1 x1528 -1 x418 = 0 ;
+1 x1529 -1 x429 = 0 ;
+1 x1530 -1 x439 = 0 ;
+1 x1531 -1 x448 = 0 ;
+1 x1532 -1 x194 = 0 ;
+1 x1533 -1 x208 = 0 ;
+1 x1534 -1 x223 = 0 ;
+1 x1535 -1 x239 = 0 ;
+1 x1536 -1 x256 = 0 ;
+1 x1537 -1 x274 = 0 ;
+1 x1538 -1 x293 = 0 ;
+1 x1539 -1 x312 = 0 ;
+1 x1540 -1 x330 = 0 ;
+1 x1541 -1 x347 = 0 ;
+1 x1542 -1 x363 = 0 ;
+1 x1543 -1 x378 = 0 ;
+1 x1544 -1 x392 = 0 ;
+1 x1545 -1 x405 = 0 ;
+1 x1546 -1 x417 = 0 ;
+1 x1547 -1 x428 = 0 ;
+1 x1548 -1 x438 = 0 ;
+1 x1549 -1 x447 = 0 ;
+1 x1550 -1 x455 = 0 ;
+1 x1551 -1 x207 = 0 ;
+1 x1552 -1 x222 = 0 ;
+1 x1553 -1 x238 = 0 ;
+1 x1554 -1 x255 = 0 ;
+1 x1555 -1 x273 = 0 ;
+1 x1556 -1 x292 = 0 ;
+1 x1557 -1 x311 = 0 ;
+1 x1558 -1 x329 = 0 ;
+1 x1559 -1 x346 = 0 ;
+1 x1560 -1 x362 = 0 ;
+1 x1561 -1 x377 = 0 ;
+1 x1562 -1 x391 = 0 ;
+1 x1563 -1 x404 = 0 ;
+1 x1564 -1 x416 = 0 ;
+1 x1565 -1 x427 = 0 ;
+1 x1566 -1 x437 = 0 ;
+1 x1567 -1 x446 = 0 ;
+1 x1568 -1 x454 = 0 ;
+1 x1569 -1 x461 = 0 ;
+1 x1570 -1 x221 = 0 ;
+1 x1571 -1 x237 = 0 ;
+1 x1572 -1 x254 = 0 ;
+1 x1573 -1 x272 = 0 ;
+1 x1574 -1 x291 = 0 ;
+1 x1575 -1 x310 = 0 ;
+1 x1576 -1 x328 = 0 ;
+1 x1577 -1 x345 = 0 ;
+1 x1578 -1 x361 = 0 ;
+1 x1579 -1 x376 = 0 ;
+1 x1580 -1 x390 = 0 ;
+1 x1581 -1 x403 = 0 ;
+1 x1582 -1 x415 = 0 ;
+1 x1583 -1 x426 = 0 ;
+1 x1584 -1 x436 = 0 ;
+1 x1585 -1 x445 = 0 ;
+1 x1586 -1 x453 = 0 ;
+1 x1587 -1 x460 = 0 ;
+1 x1588 -1 x466 = 0 ;
+1 x1589 -1 x236 = 0 ;
+1 x1590 -1 x253 = 0 ;
+1 x1591 -1 x271 = 0 ;
+1 x1592 -1 x290 = 0 ;
+1 x1593 -1 x309 = 0 ;
+1 x1594 -1 x327 = 0 ;
+1 x1595 -1 x344 = 0 ;
+1 x1596 -1 x360 = 0 ;
+1 x1597 -1 x375 = 0 ;
+1 x1598 -1 x389 = 0 ;
+1 x1599 -1 x402 = 0 ;
+1 x1600 -1 x414 = 0 ;
+1 x1601 -1 x425 = 0 ;
+1 x1602 -1 x435 = 0 ;
+1 x1603 -1 x444 = 0 ;
+1 x1604 -1 x452 = 0 ;
+1 x1605 -1 x459 = 0 ;
+1 x1606 -1 x465 = 0 ;
+1 x1607 -1 x470 = 0 ;
+1 x1608 -1 x252 = 0 ;
+1 x1609 -1 x270 = 0 ;
+1 x1610 -1 x289 = 0 ;
+1 x1611 -1 x308 = 0 ;
+1 x1612 -1 x326 = 0 ;
+1 x1613 -1 x343 = 0 ;
+1 x1614 -1 x359 = 0 ;
+1 x1615 -1 x374 = 0 ;
+1 x1616 -1 x388 = 0 ;
+1 x1617 -1 x401 = 0 ;
+1 x1618 -1 x413 = 0 ;
+1 x1619 -1 x424 = 0 ;
+1 x1620 -1 x434 = 0 ;
+1 x1621 -1 x443 = 0 ;
+1 x1622 -1 x451 = 0 ;
+1 x1623 -1 x458 = 0 ;
+1 x1624 -1 x464 = 0 ;
+1 x1625 -1 x469 = 0 ;
+1 x1626 -1 x473 = 0 ;
+1 x1627 -1 x269 = 0 ;
+1 x1628 -1 x288 = 0 ;
+1 x1629 -1 x307 = 0 ;
+1 x1630 -1 x325 = 0 ;
+1 x1631 -1 x342 = 0 ;
+1 x1632 -1 x358 = 0 ;
+1 x1633 -1 x373 = 0 ;
+1 x1634 -1 x387 = 0 ;
+1 x1635 -1 x400 = 0 ;
+1 x1636 -1 x412 = 0 ;
+1 x1637 -1 x423 = 0 ;
+1 x1638 -1 x433 = 0 ;
+1 x1639 -1 x442 = 0 ;
+1 x1640 -1 x450 = 0 ;
+1 x1641 -1 x457 = 0 ;
+1 x1642 -1 x463 = 0 ;
+1 x1643 -1 x468 = 0 ;
+1 x1644 -1 x472 = 0 ;
+1 x1645 -1 x475 = 0 ;
+1 x1646 -1 x287 = 0 ;
+1 x1647 -1 x306 = 0 ;
+1 x1648 -1 x324 = 0 ;
+1 x1649 -1 x341 = 0 ;
+1 x1650 -1 x357 = 0 ;
+1 x1651 -1 x372 = 0 ;
+1 x1652 -1 x386 = 0 ;
+1 x1653 -1 x399 = 0 ;
+1 x1654 -1 x411 = 0 ;
+1 x1655 -1 x422 = 0 ;
+1 x1656 -1 x432 = 0 ;
+1 x1657 -1 x441 = 0 ;
+1 x1658 -1 x449 = 0 ;
+1 x1659 -1 x456 = 0 ;
+1 x1660 -1 x462 = 0 ;
+1 x1661 -1 x467 = 0 ;
+1 x1662 -1 x471 = 0 ;
+1 x1663 -1 x474 = 0 ;
+1 x1664 -1 x476 = 0 ;
+2 x1665 +1 x1 -1 x1232 -1 x1703 = 0 ;
+2 x1666 +1 x2 -1 x1233 -1 x1665 -1 x1704 = 0 ;
+2 x1667 +1 x3 -1 x1234 -1 x1666 -1 x1705 = 0 ;
+2 x1668 +1 x4 -1 x1235 -1 x1667 -1 x1706 = 0 ;
+2 x1669 +1 x5 -1 x1236 -1 x1668 -1 x1707 = 0 ;
+2 x1670 +1 x6 -1 x1237 -1 x1669 -1 x1708 = 0 ;
+2 x1671 +1 x7 -1 x1239 -1 x1670 -1 x1709 = 0 ;
+2 x1672 +1 x8 -1 x1241 -1 x1671 -1 x1238 = 0 ;
+2 x1673 +1 x9 -1 x1243 -1 x1672 -1 x1240 = 0 ;
+2 x1674 +1 x10 -1 x1245 -1 x1673 -1 x1242 = 0 ;
+2 x1675 +1 x11 -1 x1247 -1 x1674 -1 x1244 = 0 ;
+2 x1676 +1 x12 -1 x1249 -1 x1675 -1 x1246 = 0 ;
+2 x1677 +1 x13 -1 x1251 -1 x1676 -1 x1248 = 0 ;
+2 x1678 +1 x14 -1 x1253 -1 x1677 -1 x1250 = 0 ;
+2 x1679 +1 x15 -1 x1255 -1 x1678 -1 x1252 = 0 ;
+2 x1680 +1 x16 -1 x1257 -1 x1679 -1 x1254 = 0 ;
+2 x1681 +1 x17 -1 x1259 -1 x1680 -1 x1256 = 0 ;
+2 x1682 +1 x18 -1 x1261 -1 x1681 -1 x1258 = 0 ;
+2 x1683 +1 x19 -1 x1263 -1 x1682 -1 x1260 = 0 ;
+2 x1684 +1 x20 -1 x1265 -1 x1683 -1 x1262 = 0 ;
+2 x1685 +1 x21 -1 x1267 -1 x1684 -1 x1264 = 0 ;
+2 x1686 +1 x22 -1 x1269 -1 x1685 -1 x1266 = 0 ;
+2 x1687 +1 x23 -1 x1271 -1 x1686 -1 x1268 = 0 ;
+2 x1688 +1 x24 -1 x1273 -1 x1687 -1 x1270 = 0 ;
+2 x1689 +1 x25 -1 x1275 -1 x1688 -1 x1272 = 0 ;
+2 x1690 +1 x26 -1 x1277 -1 x1689 -1 x1274 = 0 ;
+2 x1691 +1 x27 -1 x1279 -1 x1690 -1 x1276 = 0 ;
+2 x1692 +1 x28 -1 x1281 -1 x1691 -1 x1278 = 0 ;
+2 x1693 +1 x29 -1 x1283 -1 x1692 -1 x1280 = 0 ;
+2 x1694 +1 x30 -1 x1285 -1 x1693 -1 x1282 = 0 ;
+2 x1695 +1 x31 -1 x1287 -1 x1694 -1 x1284 = 0 ;
+2 x1696 +1 x32 -1 x1289 -1 x1695 -1 x1286 = 0 ;
+2 x1697 +1 x33 -1 x1291 -1 x1696 -1 x1288 = 0 ;
+2 x1698 +1 x34 -1 x1293 -1 x1697 -1 x1290 = 0 ;
+2 x1699 +1 x35 -1 x1295 -1 x1698 -1 x1292 = 0 ;
+2 x1700 +1 x36 -1 x1297 -1 x1699 -1 x1294 = 0 ;
+2 x1701 +1 x37 -1 x1299 -1 x1700 -1 x1296 = 0 ;
+2 x1702 +1 x38 -1 x1301 -1 x1701 -1 x1298 = 0 ;
+1 x1702 -1 x39 = 0 ;
